c status 104 1469274561542
c status 76 1469274561544
c status 70 1469274561590
c status 69 1469274561763
c status 68 1469274562657
c status 66 1469274562790
s td 44 66 169
b 1 68 65 5 70 66 37 34 156 31 53 51 52 56 57 60 17 21 63 64 54 61 62 167 151 59 86
b 2 169 65 5 4 6 168 32 37 34 155 53 46 158 160 154 161 164 153 17 18 20 165 166 50 61 167 163 75 2 86
b 3 65 5 4 70 66 6 168 32 37 34 155 156 31 49 53 22 46 51 52 7 158 160 56 57 154 161 164 60 153 17 21 63 64 18 20 165 166 50 54 61 62 147 167 163 151 59 75 15 2 86
b 4 5 4 70 66 6 168 32 37 34 155 157 156 31 49 53 22 46 51 52 7 158 160 56 57 154 161 164 60 153 17 21 63 64 18 20 165 166 50 54 77 61 62 147 167 163 151 59 75 15 2 86
b 5 35 33 38 4 70 66 6 168 32 37 34 155 29 51 52 78 21 64 18 20 24 26 23 28 27 50 30 152 25
b 6 33 38 4 70 66 6 168 32 37 34 155 156 29 49 51 52 78 153 17 21 48 64 18 20 19 24 26 23 166 28 27 50 30 76 62 152 16 149 25 98
b 7 38 4 70 66 6 168 32 37 34 155 157 156 29 49 53 22 51 52 78 154 153 17 21 48 64 18 20 19 24 26 23 166 28 27 50 30 76 62 152 16 149 25 98
b 8 4 70 66 6 168 32 37 34 155 157 156 31 29 49 53 22 46 51 52 7 158 160 56 57 78 154 161 164 60 153 17 21 63 48 64 18 20 19 24 26 23 165 166 28 27 50 54 77 30 61 76 62 147 167 163 152 16 149 151 59 75 15 2 25 98 86
b 9 70 66 6 168 32 37 34 155 157 156 31 43 29 49 53 22 46 51 52 7 158 160 56 57 78 154 161 164 60 153 17 21 63 48 64 18 20 19 24 26 23 165 166 28 27 50 54 77 30 61 76 62 147 167 163 152 16 149 151 59 75 15 2 25 98 86
b 10 168 32 37 34 155 157 156 31 43 29 49 53 22 46 51 52 7 158 160 56 57 78 154 161 164 60 153 17 21 63 48 64 18 20 19 24 26 74 23 165 166 28 27 45 50 54 77 30 61 76 62 147 167 163 152 16 149 151 59 75 15 2 25 98 86
b 11 155 157 156 31 43 29 49 53 22 46 51 52 7 158 160 56 57 78 146 154 161 164 60 153 17 21 63 48 64 18 20 19 24 26 74 23 165 166 28 27 45 50 54 77 30 61 76 62 147 134 167 163 152 16 149 151 59 75 15 2 25 98 86 122 110
b 12 11 9 13 42 40 8 10 12 22 7 78 146 161 164 17 21 18 20 26 74 28 27 45 54 62 163 16 149 59 15 122 1
b 13 9 13 42 40 8 10 12 150 72 22 7 158 160 56 78 146 161 164 60 17 21 18 20 24 26 74 23 28 27 45 54 76 62 163 16 149 59 15 122 1
b 14 13 42 40 8 10 12 162 150 72 29 22 7 158 160 56 57 78 146 161 164 60 17 21 48 64 18 20 24 26 74 23 165 166 28 27 45 54 30 61 76 62 163 152 16 149 59 15 122 1
b 15 39 41 44 73 42 40 8 10 71 31 49 53 46 51 52 158 56 48 24 23 45 50 54 147 163 110 1
b 16 41 44 73 42 40 8 10 12 162 71 31 49 53 46 51 52 158 56 57 161 48 24 26 23 165 27 45 50 54 147 134 163 151 59 75 110 1
b 17 44 73 42 40 8 10 12 162 71 31 29 49 53 46 51 52 158 160 56 57 161 164 60 153 48 19 24 26 23 165 28 27 45 50 54 77 61 147 134 167 163 151 59 75 15 2 110 1
b 18 73 42 40 8 10 12 162 72 71 31 29 49 53 46 51 52 158 160 56 57 78 161 164 60 153 48 19 24 26 74 23 165 28 27 45 50 54 77 61 76 147 134 167 163 151 59 75 15 2 110 1
b 19 42 40 8 10 12 162 150 72 71 31 29 49 53 22 46 51 52 7 158 160 56 57 78 146 161 164 60 153 17 21 48 64 18 20 19 24 26 74 23 165 166 28 27 45 50 54 77 30 61 76 62 147 134 167 163 152 16 149 151 59 75 15 2 122 110 1
b 20 12 162 150 72 71 31 29 49 53 22 46 51 52 7 158 160 56 57 78 146 161 164 60 153 17 21 63 48 64 18 20 19 24 26 74 23 165 166 28 27 45 50 54 77 30 61 76 62 147 134 167 163 152 16 149 151 59 75 15 2 122 110 1
b 21 55 67 162 150 71 31 43 7 56 78 63 19 1
b 22 67 162 150 72 71 31 43 7 56 78 63 19 1
b 23 162 150 72 71 31 43 29 49 53 22 46 51 52 7 158 160 56 57 78 146 161 164 60 153 17 21 63 48 64 18 20 19 24 26 74 23 165 166 28 27 45 50 54 77 30 61 76 62 147 134 167 163 152 16 149 151 59 75 15 2 122 110 1
b 24 31 43 29 49 53 22 46 51 52 7 158 160 56 57 78 146 154 161 164 60 153 17 21 63 48 64 18 20 19 24 26 74 23 165 166 28 27 45 50 54 77 30 61 76 62 147 134 167 163 152 16 149 151 59 75 15 2 25 98 86 122 110 1
b 25 92 94 95 93 96 99 97 109 58 143 127 84 85 107 90 89 87 88 69 136 108 91 47 121 124 140
b 26 94 95 93 96 99 104 97 111 109 58 79 82 143 127 144 128 125 84 85 107 90 89 87 88 69 136 141 108 91 123 47 121 124 140 138
b 27 95 93 115 112 96 99 104 97 111 109 58 79 82 129 143 145 80 142 127 144 128 125 84 85 107 90 89 87 88 69 136 141 108 91 123 47 121 124 139 140 138 2 1
b 28 126 114 93 115 96 99 104 111 82 145 81 130 125 83 140
b 29 114 113 93 115 112 96 99 104 97 111 109 82 129 143 145 80 81 130 125 83 103 105 107 101 100 102 108 106 140 98
b 30 113 93 115 112 96 99 104 97 111 109 79 82 129 143 145 80 81 142 130 144 128 125 83 103 105 107 101 100 102 108 106 140 98 86
b 31 93 115 112 96 99 104 97 111 109 58 79 82 129 143 145 80 81 142 127 130 144 128 125 83 84 85 103 105 107 90 89 101 100 102 87 88 69 136 141 108 91 106 123 47 121 124 139 140 138 2 98 86 1
b 32 112 96 99 104 97 111 109 58 79 82 129 143 145 80 81 142 127 130 144 128 125 83 84 85 103 105 107 90 89 101 100 102 87 88 69 136 141 108 91 106 123 47 121 124 139 140 138 2 25 98 86 1
b 33 111 109 58 79 82 129 143 145 80 81 142 127 130 144 128 125 83 84 85 103 105 107 90 89 101 100 102 87 88 69 136 141 108 91 106 123 47 121 124 139 140 138 2 25 98 86 110 1
b 34 36 159 148 3 137 118 132 14 58 79 80 81 142 125 83 103 90 89 69 108 91 106 47 121 138
b 35 159 148 3 137 133 118 132 14 58 79 80 81 142 125 83 85 103 105 90 89 100 102 87 88 69 108 91 106 47 121 139 138
b 36 148 3 137 120 133 117 118 132 14 58 79 80 81 142 125 83 84 85 103 105 90 89 101 100 102 87 88 69 108 91 106 47 121 139 138 2
b 37 119 135 116 3 137 120 133 117 118 129 127 130 128 125 85 103 105 90 102 88 136 123 47 121 124
b 38 131 135 116 137 133 117 132 14 143 145 142 144 84 100 102 88 136 141 139 140 138 98 110 1
b 39 135 116 3 137 120 133 117 118 132 14 58 82 129 143 145 142 127 130 144 128 125 84 85 103 105 90 101 100 102 88 136 141 91 106 123 47 121 124 139 140 138 98 110 1
b 40 116 3 137 120 133 117 118 132 14 58 82 129 143 145 142 127 130 144 128 125 84 85 103 105 90 101 100 102 87 88 136 141 91 106 123 47 121 124 139 140 138 98 86 110 1
b 41 3 137 120 133 117 118 132 14 58 79 82 129 143 145 80 81 142 127 130 144 128 125 83 84 85 103 105 90 89 101 100 102 87 88 69 136 141 108 91 106 123 47 121 124 139 140 138 2 98 86 110 1
b 42 132 14 58 79 82 129 143 145 80 81 142 127 130 144 128 125 83 84 85 103 105 90 89 101 100 102 87 88 69 136 141 108 91 106 123 47 121 124 139 140 138 2 98 86 122 110 1
b 43 14 58 79 82 129 143 145 80 81 142 127 130 144 128 125 83 84 85 103 105 107 90 89 101 100 102 87 88 69 136 141 108 91 106 123 47 121 124 139 140 138 2 98 86 122 110 1
b 44 58 79 82 129 143 145 80 81 142 127 130 144 128 125 83 84 85 103 105 107 90 89 101 100 102 87 88 69 136 141 108 91 106 123 47 121 124 139 140 138 2 25 98 86 122 110 1
1 3
3 4
4 8
8 9
9 10
10 11
11 24
24 23
23 20
20 19
19 18
19 14
18 17
8 7
14 13
7 6
17 16
13 12
3 2
6 5
16 15
23 22
22 21
24 44
44 33
33 32
32 31
44 43
43 42
42 41
41 40
40 39
31 27
41 36
27 26
31 30
36 35
30 29
26 25
39 37
35 34
39 38
29 28
